NAME : n100w160.004.814.tour
COMMENT : Length = 814
COMMENT : Found by LKH [Keld Helsgaun] Tue May  2 05:52:36 2017
TYPE : TOUR
DIMENSION : 101
TOUR_SECTION
1
40
45
5
93
4
27
78
99
12
47
88
60
63
77
85
76
8
39
82
13
84
67
36
9
33
42
44
49
22
56
50
46
19
37
73
38
71
75
43
48
16
29
96
95
87
24
68
101
65
80
35
74
17
55
69
10
7
57
66
61
18
64
90
26
79
94
70
30
3
86
59
98
14
15
51
97
100
28
72
41
58
25
53
2
54
6
34
31
20
62
92
23
21
11
52
89
91
81
83
32
-1
EOF
